dag/tunnelDiodes.nl
g3 0 1 0	# problem tunnelDiodes
 12 12 0 0 12	# vars, constraints, objectives, ranges, eqns
 6 0	# nonlinear constraints, objectives
 0 0	# network constraints: nonlinear, linear
 6 0 0	# nonlinear vars in constraints, objectives, both
 0 0 0 1	# linear network variables; functions; arith, flags
 0 0 0 0 0	# discrete variables: binary, integer, nonlinear (b,c,o)
 28 0	# nonzeros in Jacobian, gradients
 12 4	# max name lengths: constraints, variables
 0 0 0 0 0	# common exprs: b,c,o,c1,o1
C0
o0
o2
n2.5
o5
v0
n3
o2
n-10.5
o5
v0
n2
C1
o0
o2
n2.5
o5
v1
n3
o2
n-10.5
o5
v1
n2
C2
o0
o2
n2.5
o5
v2
n3
o2
n-10.5
o5
v2
n2
C3
o0
o2
n2.5
o5
v3
n3
o2
n-10.5
o5
v3
n2
C4
o0
o2
n2.5
o5
v4
n3
o2
n-10.5
o5
v4
n2
C5
o0
o2
n2.5
o5
v5
n3
o2
n-10.5
o5
v5
n2
C6
n0
C7
n0
C8
n0
C9
n0
C10
n0
C11
n0
d12
0 0
1 0
2 0
3 0
4 0
5 0
6 0
7 0
8 0
9 0
10 0
11 0
x12
0 -0.014139131918514809
1 0.0753955743593062
2 0.18397146689961458
3 0.3283613011965496
4 0.5953587198285026
5 2.730622731284013
6 1.1689479312562263
7 1.1830870629963683
8 1.1076914884587583
9 0.9237200213809411
10 0.5953587200063385
11 2.7306227294470182
r
4 1
4 2
4 3
4 4
4 5
4 6
4 0
4 0
4 0
4 0
4 0
4 0
b
0 -10 10
0 -10 10
0 -10 10
0 -10 10
0 -10 10
0 -10 10
0 -60 60
0 -50 50
0 -40 40
0 -30 30
0 -20 20
0 -10 10
k11
2
4
6
8
10
12
19
21
23
25
27
J0 2
0 11.8
6 1
J1 2
1 11.8
6 1
J2 2
2 11.8
6 1
J3 2
3 11.8
6 1
J4 2
4 11.8
6 1
J5 2
5 11.8
6 1
J6 3
0 1
6 -1
7 1
J7 3
1 1
7 -1
8 1
J8 3
2 1
8 -1
9 1
J9 3
3 1
9 -1
10 1
J10 2
4 1
10 -1
J11 2
5 1
11 -1
