dag/tunnelDiodes.col
x[1]
x[2]
x[3]
x[4]
x[5]
x[6]
z[1]
z[2]
z[3]
z[4]
z[5]
z[6]
